c Reduced graph for GEOM120b_1 generated by Cyril Grelier
p edge 118 1477
e 1 2
e 1 3
e 1 4
e 1 5
e 1 6
e 1 7
e 1 9
e 1 10
e 1 11
e 1 12
e 1 13
e 1 14
e 1 15
e 1 16
e 1 18
e 1 20
e 1 21
e 1 22
e 1 23
e 1 24
e 1 25
e 1 26
e 1 27
e 1 28
e 1 29
e 1 30
e 1 32
e 1 35
e 1 36
e 1 39
e 1 43
e 1 44
e 1 46
e 1 48
e 1 49
e 1 51
e 1 53
e 1 55
e 1 56
e 1 57
e 1 65
e 1 74
e 1 83
e 2 3
e 2 4
e 2 5
e 2 10
e 2 11
e 2 13
e 2 15
e 2 16
e 2 18
e 2 20
e 2 21
e 2 22
e 2 24
e 2 28
e 2 30
e 2 32
e 2 35
e 2 36
e 2 39
e 2 43
e 2 44
e 2 46
e 2 48
e 2 49
e 2 51
e 2 53
e 2 55
e 2 56
e 2 57
e 2 62
e 2 65
e 2 69
e 2 71
e 2 74
e 2 75
e 2 79
e 2 83
e 2 99
e 3 4
e 3 5
e 3 6
e 3 7
e 3 9
e 3 10
e 3 12
e 3 13
e 3 14
e 3 15
e 3 16
e 3 17
e 3 18
e 3 19
e 3 20
e 3 21
e 3 22
e 3 23
e 3 24
e 3 25
e 3 26
e 3 28
e 3 29
e 3 30
e 3 33
e 3 35
e 3 36
e 3 37
e 3 39
e 3 43
e 3 44
e 3 45
e 3 46
e 3 47
e 3 49
e 3 54
e 3 62
e 4 5
e 4 6
e 4 9
e 4 10
e 4 11
e 4 13
e 4 14
e 4 15
e 4 16
e 4 18
e 4 20
e 4 21
e 4 22
e 4 23
e 4 24
e 4 25
e 4 27
e 4 28
e 4 29
e 4 30
e 4 32
e 4 35
e 4 36
e 4 38
e 4 39
e 4 43
e 4 44
e 4 46
e 4 48
e 4 51
e 4 55
e 4 56
e 4 57
e 4 74
e 4 83
e 5 6
e 5 7
e 5 9
e 5 10
e 5 12
e 5 13
e 5 14
e 5 15
e 5 17
e 5 18
e 5 19
e 5 20
e 5 21
e 5 23
e 5 25
e 5 26
e 5 29
e 5 33
e 5 36
e 5 37
e 5 39
e 5 43
e 5 44
e 5 46
e 5 47
e 5 49
e 5 53
e 5 54
e 5 58
e 5 59
e 5 61
e 5 62
e 5 65
e 5 72
e 6 7
e 6 9
e 6 10
e 6 12
e 6 13
e 6 14
e 6 17
e 6 18
e 6 19
e 6 20
e 6 21
e 6 23
e 6 25
e 6 26
e 6 29
e 6 30
e 6 33
e 6 34
e 6 35
e 6 37
e 6 44
e 6 45
e 6 47
e 6 50
e 6 54
e 6 58
e 6 59
e 6 61
e 6 63
e 6 68
e 6 72
e 6 81
e 6 86
e 7 9
e 7 10
e 7 12
e 7 13
e 7 14
e 7 17
e 7 18
e 7 19
e 7 20
e 7 21
e 7 23
e 7 25
e 7 26
e 7 29
e 7 30
e 7 33
e 7 34
e 7 35
e 7 37
e 7 44
e 7 45
e 7 47
e 7 50
e 7 58
e 7 59
e 7 61
e 7 63
e 7 68
e 7 72
e 7 81
e 7 86
e 8 9
e 8 10
e 8 13
e 8 18
e 8 20
e 8 22
e 8 24
e 8 27
e 8 28
e 8 30
e 8 31
e 8 34
e 8 35
e 8 38
e 8 40
e 8 41
e 8 42
e 8 60
e 8 64
e 8 66
e 8 67
e 8 70
e 8 73
e 8 76
e 8 77
e 8 78
e 8 82
e 8 87
e 8 88
e 8 90
e 8 91
e 8 95
e 8 96
e 8 97
e 8 100
e 9 10
e 9 13
e 9 14
e 9 18
e 9 19
e 9 20
e 9 22
e 9 23
e 9 24
e 9 25
e 9 27
e 9 28
e 9 29
e 9 30
e 9 31
e 9 33
e 9 34
e 9 35
e 9 38
e 9 40
e 9 41
e 9 42
e 9 45
e 9 50
e 9 52
e 9 60
e 9 63
e 9 78
e 10 11
e 10 12
e 10 13
e 10 14
e 10 15
e 10 18
e 10 19
e 10 20
e 10 21
e 10 22
e 10 23
e 10 24
e 10 25
e 10 26
e 10 27
e 10 28
e 10 29
e 10 30
e 10 33
e 10 35
e 10 36
e 10 38
e 10 44
e 10 45
e 10 56
e 10 57
e 11 13
e 11 15
e 11 16
e 11 24
e 11 27
e 11 28
e 11 32
e 11 36
e 11 39
e 11 43
e 11 46
e 11 48
e 11 51
e 11 55
e 11 56
e 11 57
e 11 69
e 11 71
e 11 74
e 11 75
e 11 79
e 11 80
e 11 83
e 11 84
e 11 87
e 11 92
e 11 98
e 11 99
e 11 103
e 11 106
e 12 13
e 12 14
e 12 17
e 12 18
e 12 19
e 12 20
e 12 21
e 12 23
e 12 25
e 12 26
e 12 29
e 12 33
e 12 36
e 12 37
e 12 39
e 12 44
e 12 47
e 12 49
e 12 54
e 12 58
e 12 59
e 12 61
e 12 62
e 12 72
e 12 81
e 12 85
e 12 86
e 12 93
e 13 14
e 13 15
e 13 18
e 13 19
e 13 20
e 13 21
e 13 22
e 13 23
e 13 24
e 13 25
e 13 26
e 13 27
e 13 28
e 13 29
e 13 30
e 13 33
e 13 34
e 13 35
e 13 38
e 13 45
e 13 56
e 13 57
e 14 17
e 14 18
e 14 19
e 14 20
e 14 21
e 14 22
e 14 23
e 14 24
e 14 25
e 14 26
e 14 29
e 14 30
e 14 33
e 14 34
e 14 35
e 14 37
e 14 40
e 14 44
e 14 45
e 14 50
e 14 52
e 14 63
e 14 68
e 14 72
e 15 16
e 15 18
e 15 20
e 15 21
e 15 32
e 15 36
e 15 39
e 15 43
e 15 44
e 15 46
e 15 48
e 15 49
e 15 51
e 15 53
e 15 55
e 15 56
e 15 57
e 15 62
e 15 65
e 15 69
e 15 71
e 15 75
e 15 79
e 15 80
e 15 84
e 16 32
e 16 36
e 16 39
e 16 43
e 16 46
e 16 48
e 16 49
e 16 51
e 16 53
e 16 55
e 16 56
e 16 57
e 16 62
e 16 65
e 16 69
e 16 71
e 16 74
e 16 75
e 16 79
e 16 80
e 16 83
e 16 84
e 16 92
e 16 98
e 16 99
e 16 103
e 16 106
e 17 18
e 17 19
e 17 20
e 17 21
e 17 23
e 17 25
e 17 26
e 17 29
e 17 33
e 17 37
e 17 44
e 17 47
e 17 54
e 17 58
e 17 59
e 17 61
e 17 62
e 17 68
e 17 72
e 17 81
e 17 85
e 17 86
e 17 93
e 17 101
e 17 104
e 17 105
e 17 111
e 18 19
e 18 20
e 18 21
e 18 22
e 18 23
e 18 24
e 18 25
e 18 26
e 18 28
e 18 29
e 18 30
e 18 33
e 18 34
e 18 35
e 18 38
e 18 40
e 18 45
e 18 50
e 19 20
e 19 21
e 19 23
e 19 25
e 19 26
e 19 29
e 19 33
e 19 37
e 19 44
e 19 45
e 19 47
e 19 54
e 19 58
e 19 59
e 19 61
e 19 68
e 19 72
e 19 81
e 19 85
e 19 86
e 19 93
e 19 104
e 20 21
e 20 22
e 20 23
e 20 24
e 20 25
e 20 26
e 20 28
e 20 29
e 20 30
e 20 33
e 20 34
e 20 35
e 20 38
e 20 40
e 20 45
e 20 50
e 21 23
e 21 26
e 21 36
e 21 37
e 21 39
e 21 43
e 21 44
e 21 46
e 21 47
e 21 49
e 21 53
e 21 54
e 21 58
e 21 59
e 21 61
e 21 62
e 21 65
e 22 23
e 22 24
e 22 25
e 22 27
e 22 28
e 22 29
e 22 30
e 22 31
e 22 34
e 22 35
e 22 38
e 22 41
e 22 42
e 22 45
e 22 56
e 22 57
e 22 60
e 22 64
e 22 67
e 22 74
e 22 76
e 22 87
e 23 24
e 23 25
e 23 26
e 23 29
e 23 30
e 23 33
e 23 34
e 23 35
e 23 37
e 23 40
e 23 45
e 23 50
e 23 52
e 23 63
e 23 68
e 23 72
e 24 25
e 24 27
e 24 28
e 24 29
e 24 30
e 24 31
e 24 35
e 24 38
e 24 42
e 24 56
e 24 57
e 24 60
e 24 64
e 24 74
e 24 83
e 24 87
e 24 91
e 24 98
e 25 26
e 25 29
e 25 30
e 25 33
e 25 34
e 25 35
e 25 40
e 25 41
e 25 45
e 25 50
e 25 52
e 25 63
e 25 68
e 25 78
e 26 29
e 26 33
e 26 36
e 26 37
e 26 44
e 26 47
e 26 49
e 26 54
e 26 58
e 26 59
e 26 61
e 26 62
e 26 72
e 26 81
e 26 85
e 26 86
e 27 28
e 27 30
e 27 31
e 27 35
e 27 38
e 27 42
e 27 55
e 27 56
e 27 57
e 27 60
e 27 64
e 27 67
e 27 74
e 27 76
e 27 83
e 27 87
e 27 90
e 27 91
e 27 95
e 27 97
e 27 98
e 27 99
e 27 102
e 28 30
e 28 31
e 28 35
e 28 38
e 28 42
e 28 55
e 28 56
e 28 57
e 28 60
e 28 64
e 28 74
e 28 83
e 28 87
e 28 91
e 28 97
e 28 98
e 28 99
e 28 102
e 29 30
e 29 33
e 29 34
e 29 35
e 29 40
e 29 41
e 29 45
e 29 50
e 29 52
e 29 63
e 29 68
e 30 31
e 30 33
e 30 34
e 30 35
e 30 38
e 30 40
e 30 41
e 30 42
e 30 45
e 30 50
e 30 60
e 31 34
e 31 35
e 31 38
e 31 40
e 31 41
e 31 42
e 31 60
e 31 64
e 31 66
e 31 67
e 31 70
e 31 73
e 31 76
e 31 77
e 31 78
e 31 82
e 31 88
e 31 90
e 31 91
e 31 94
e 31 95
e 31 96
e 31 97
e 31 100
e 32 36
e 32 39
e 32 43
e 32 46
e 32 48
e 32 49
e 32 51
e 32 53
e 32 55
e 32 56
e 32 57
e 32 65
e 32 69
e 32 71
e 32 74
e 32 75
e 32 79
e 32 80
e 32 83
e 32 84
e 32 92
e 32 98
e 32 99
e 32 103
e 32 106
e 33 34
e 33 35
e 33 40
e 33 41
e 33 45
e 33 50
e 33 52
e 33 63
e 33 68
e 33 72
e 33 81
e 33 89
e 33 108
e 34 35
e 34 40
e 34 41
e 34 45
e 34 50
e 34 52
e 34 63
e 34 66
e 34 68
e 34 70
e 34 73
e 34 77
e 34 78
e 34 89
e 34 94
e 34 113
e 35 38
e 35 40
e 35 41
e 35 42
e 35 45
e 35 50
e 35 60
e 36 37
e 36 39
e 36 43
e 36 44
e 36 46
e 36 47
e 36 48
e 36 49
e 36 51
e 36 53
e 36 54
e 36 59
e 36 62
e 36 65
e 36 71
e 36 75
e 36 79
e 36 80
e 37 39
e 37 44
e 37 47
e 37 49
e 37 53
e 37 54
e 37 58
e 37 59
e 37 61
e 37 62
e 37 72
e 37 81
e 37 85
e 37 86
e 37 93
e 37 101
e 37 104
e 37 105
e 37 112
e 38 42
e 38 56
e 38 57
e 38 60
e 38 64
e 38 67
e 38 74
e 38 76
e 38 83
e 38 87
e 38 88
e 38 90
e 38 91
e 38 95
e 38 97
e 38 102
e 39 43
e 39 44
e 39 46
e 39 47
e 39 48
e 39 49
e 39 51
e 39 53
e 39 54
e 39 59
e 39 62
e 39 65
e 39 71
e 39 75
e 39 79
e 39 80
e 39 84
e 40 41
e 40 45
e 40 50
e 40 52
e 40 63
e 40 66
e 40 70
e 40 73
e 40 77
e 40 78
e 40 82
e 40 89
e 40 94
e 40 107
e 40 109
e 40 110
e 40 113
e 41 42
e 41 45
e 41 50
e 41 52
e 41 63
e 41 66
e 41 67
e 41 70
e 41 73
e 41 76
e 41 77
e 41 78
e 41 82
e 41 89
e 41 94
e 41 107
e 41 109
e 41 110
e 42 60
e 42 64
e 42 66
e 42 67
e 42 70
e 42 73
e 42 76
e 42 77
e 42 82
e 42 87
e 42 88
e 42 90
e 42 91
e 42 95
e 42 96
e 42 97
e 42 100
e 42 102
e 43 44
e 43 46
e 43 47
e 43 48
e 43 49
e 43 51
e 43 53
e 43 62
e 43 65
e 43 69
e 43 71
e 43 75
e 43 79
e 43 80
e 43 84
e 43 92
e 43 103
e 44 46
e 44 47
e 44 49
e 44 51
e 44 53
e 44 54
e 44 59
e 44 61
e 44 62
e 44 65
e 45 50
e 45 52
e 45 63
e 45 68
e 45 70
e 45 78
e 45 89
e 45 94
e 45 108
e 46 47
e 46 48
e 46 49
e 46 51
e 46 53
e 46 54
e 46 62
e 46 65
e 46 71
e 46 75
e 46 79
e 46 80
e 46 84
e 46 103
e 47 49
e 47 53
e 47 54
e 47 58
e 47 59
e 47 61
e 47 62
e 47 65
e 47 85
e 47 93
e 47 101
e 47 105
e 47 112
e 48 49
e 48 51
e 48 53
e 48 55
e 48 56
e 48 57
e 48 62
e 48 65
e 48 69
e 48 71
e 48 75
e 48 79
e 48 80
e 48 84
e 48 92
e 48 103
e 48 106
e 49 51
e 49 53
e 49 54
e 49 59
e 49 62
e 49 65
e 49 71
e 49 75
e 49 80
e 50 52
e 50 63
e 50 66
e 50 68
e 50 70
e 50 77
e 50 78
e 50 89
e 50 94
e 50 108
e 50 113
e 51 53
e 51 55
e 51 62
e 51 65
e 51 69
e 51 71
e 51 75
e 51 79
e 51 80
e 51 84
e 51 92
e 51 103
e 51 106
e 52 63
e 52 66
e 52 68
e 52 70
e 52 77
e 52 78
e 52 89
e 52 94
e 52 107
e 52 108
e 52 109
e 52 113
e 52 115
e 52 116
e 52 118
e 53 54
e 53 59
e 53 62
e 53 65
e 53 71
e 53 75
e 53 79
e 53 80
e 53 84
e 54 58
e 54 59
e 54 61
e 54 62
e 54 65
e 54 85
e 54 93
e 54 101
e 54 105
e 54 112
e 55 56
e 55 57
e 55 69
e 55 74
e 55 75
e 55 79
e 55 83
e 55 84
e 55 87
e 55 92
e 55 98
e 55 99
e 55 102
e 55 103
e 55 106
e 56 57
e 56 64
e 56 69
e 56 74
e 56 83
e 56 87
e 56 92
e 56 98
e 56 99
e 56 102
e 57 60
e 57 64
e 57 69
e 57 74
e 57 83
e 57 87
e 57 98
e 57 99
e 57 102
e 58 59
e 58 61
e 58 68
e 58 72
e 58 81
e 58 85
e 58 86
e 58 93
e 58 101
e 58 104
e 58 105
e 58 111
e 58 112
e 58 114
e 59 61
e 59 62
e 59 85
e 59 93
e 59 101
e 59 104
e 59 105
e 59 112
e 60 64
e 60 67
e 60 73
e 60 74
e 60 76
e 60 87
e 60 88
e 60 90
e 60 91
e 60 95
e 60 97
e 60 100
e 60 102
e 61 72
e 61 81
e 61 85
e 61 86
e 61 93
e 61 101
e 61 104
e 61 105
e 61 111
e 61 112
e 61 114
e 62 65
e 62 71
e 62 80
e 63 68
e 63 72
e 63 78
e 63 81
e 63 89
e 63 108
e 63 113
e 63 115
e 63 116
e 63 117
e 63 118
e 64 67
e 64 74
e 64 76
e 64 83
e 64 87
e 64 88
e 64 90
e 64 91
e 64 95
e 64 97
e 64 98
e 64 100
e 64 102
e 65 71
e 65 75
e 65 79
e 65 80
e 65 84
e 66 67
e 66 70
e 66 73
e 66 76
e 66 77
e 66 78
e 66 82
e 66 88
e 66 90
e 66 94
e 66 95
e 66 96
e 66 100
e 66 107
e 66 109
e 66 110
e 67 70
e 67 73
e 67 76
e 67 77
e 67 82
e 67 88
e 67 90
e 67 91
e 67 95
e 67 96
e 67 97
e 67 100
e 67 110
e 68 72
e 68 81
e 68 86
e 68 89
e 68 108
e 68 115
e 68 116
e 68 117
e 69 71
e 69 74
e 69 75
e 69 79
e 69 80
e 69 83
e 69 84
e 69 92
e 69 98
e 69 99
e 69 103
e 69 106
e 70 73
e 70 76
e 70 77
e 70 78
e 70 82
e 70 88
e 70 89
e 70 94
e 70 96
e 70 107
e 70 109
e 70 110
e 71 75
e 71 79
e 71 80
e 71 84
e 71 92
e 71 103
e 71 106
e 72 81
e 72 85
e 72 86
e 72 93
e 72 104
e 72 108
e 72 111
e 72 117
e 73 76
e 73 77
e 73 78
e 73 82
e 73 88
e 73 90
e 73 94
e 73 95
e 73 96
e 73 100
e 73 107
e 73 109
e 73 110
e 74 83
e 74 87
e 74 91
e 74 98
e 74 99
e 74 102
e 75 79
e 75 80
e 75 84
e 75 92
e 75 103
e 75 106
e 76 77
e 76 82
e 76 88
e 76 90
e 76 91
e 76 95
e 76 96
e 76 97
e 76 100
e 77 78
e 77 82
e 77 88
e 77 90
e 77 94
e 77 96
e 77 107
e 77 109
e 77 110
e 78 82
e 78 89
e 78 94
e 78 107
e 78 109
e 78 110
e 78 113
e 79 80
e 79 84
e 79 92
e 79 103
e 79 106
e 80 84
e 80 92
e 80 103
e 80 106
e 81 85
e 81 86
e 81 93
e 81 101
e 81 104
e 81 105
e 81 108
e 81 111
e 81 117
e 82 88
e 82 90
e 82 94
e 82 95
e 82 96
e 82 100
e 82 107
e 82 109
e 82 110
e 83 87
e 83 92
e 83 98
e 83 99
e 83 102
e 84 92
e 84 103
e 84 106
e 85 86
e 85 93
e 85 101
e 85 104
e 85 105
e 85 111
e 85 112
e 85 114
e 86 93
e 86 101
e 86 104
e 86 105
e 86 111
e 86 114
e 86 117
e 87 91
e 87 97
e 87 98
e 87 99
e 87 102
e 88 90
e 88 91
e 88 95
e 88 96
e 88 97
e 88 100
e 89 94
e 89 107
e 89 108
e 89 109
e 89 113
e 89 115
e 89 116
e 89 118
e 90 91
e 90 95
e 90 96
e 90 97
e 90 100
e 91 95
e 91 97
e 91 100
e 91 102
e 92 98
e 92 99
e 92 103
e 92 106
e 93 101
e 93 104
e 93 105
e 93 111
e 93 112
e 93 114
e 94 96
e 94 107
e 94 109
e 94 110
e 94 113
e 95 96
e 95 97
e 95 100
e 96 100
e 96 107
e 96 109
e 96 110
e 97 100
e 97 102
e 98 99
e 98 102
e 99 102
e 99 106
e 101 104
e 101 105
e 101 111
e 101 112
e 101 114
e 103 106
e 104 105
e 104 111
e 104 112
e 104 114
e 105 111
e 105 112
e 105 114
e 107 109
e 107 110
e 108 113
e 108 115
e 108 116
e 108 117
e 108 118
e 109 110
e 111 112
e 111 114
e 112 114
e 113 115
e 113 116
e 113 118
e 115 116
e 115 117
e 115 118
e 116 117
e 116 118
e 117 118
